NAME : zqloutput/eax-hard-simple-rescaleandround/50-9.tsp
TYPE : TSP
DIMENSION : 50
EDGE_WEIGHT_TYPE : EUC_2D
NODE_COORD_SECTION
1 591769 3336
2 418598 673309
3 912324 364427
4 734101 761273
5 522668 663016
6 450384 615071
7 597655 776530
8 591655 688257
9 524716 290798
10 437817 666656
11 984163 555323
12 61293 516344
13 495401 466627
14 421471 128636
15 477281 95958
16 13619 644875
17 554693 721447
18 70118 888202
19 219037 107892
20 995603 143674
21 529087 972766
22 406820 437939
23 737402 231448
24 609535 990081
25 330686 561989
26 152830 433283
27 450281 420123
28 444452 236633
29 69254 275011
30 526930 400637
31 428113 423082
32 718798 990806
33 742459 490444
34 457870 530271
35 730754 271821
36 207175 326864
37 639121 2346
38 586069 956803
39 73295 267210
40 734720 262007
41 160789 620457
42 256875 250376
43 467211 952832
44 155470 259733
45 863955 435364
46 228494 367014
47 939077 886033
48 597124 465434
49 471407 865980
50 511173 301032
EOF
